# Pure Ni.lmp to FeNiCrCo.data HEAs
units	 metal           
boundary     p p p           
atom_style   atomic          
read_data    Ni-100nm.lmp                 

set    type  1  type/ratio  2  0.5   12499
set    type  1  type/ratio  3  0.5   12499
set    type  2  type/ratio  4  0.5   12499

mass   1 58.933      #Co
mass   2 58.690      #Ni
mass   3 51.960      #Cr
mass   4 55.847      #Fe


write_data   FeNiCrCo-100nm.data                   
